50
27810

374 610
466 972
296 340
788 665
366 806
537 692
976 359
899 532
617 573
411 931
179 107
703 95
728 633
105 267
832 244
762 32
708 821
691 326
38 463
150 126
828 326
859 94
704 692
673 727
927 95
685 555
586 72
514 543
754 42
961 302
929 90
796 936
530 742
205 697
151 812
754 152
964 837
408 704
985 836
759 657
267 72
862 868
681 677
912 482
306 879
358 863
646 307
630 665
653 591
679 59
